w = 15;
n = 25;
measures = [|7, 12,
|7, 7,
|1, 7,
|1, 5,
|2, 3,
|2, 6,
|2, 7,
|2, 5,
|1, 3,
|1, 6,
|6, 12,
|6, 9,
|2, 12,
|2, 7,
|3, 10,
|1, 4,
|1, 5,
|3, 16,
|3, 5,
|2, 4,
|2, 5,
|3, 10,
|3, 9,
|3, 16,
|3, 5,
|];
initial_x = [0, 7, 14, 0, 1, 3, 5, 7, 9, 10, 0, 6, 12, 0, 2, 5, 6, 7, 10, 13, 0, 2, 5, 8, 11];
initial_y = [0, 0, 0, 12, 12, 12, 12, 12, 12, 12, 19, 19, 19, 31, 31, 31, 31, 31, 31, 31, 47, 47, 47, 47, 47];